(declare-const delta_i1 Int)
(declare-const delta_i2 Int)
(assert (exists
         ((|i1'?1| Int) (S1_integralized?2 Int) (|i2'?3?3| Int) (KSUM1?4 Int)
            (K1?5 Int) (K6?6 Int) (|i2'?7?7| Int) (i2?8 Int) (n9?9 Int)
            (i1?10 Int))
         (and (<= (- i2?8) 0) (<= (- i1?10) 0) (< (+ (- n9?9) i1?10 2) 0)
                (<= (- K6?6) 0) (<= (- K1?5) 0) (= (+ K1?5 (- K6?6)) 0)
                (<= (+ KSUM1?4 (- K6?6)) 0)
                (= (+ (- S1_integralized?2) |i2'?3?3| (- K1?5)) 0)
                (= (+ (- KSUM1?4) K1?5) 0) (= S1_integralized?2 0)
                (or (and (= K6?6 0) (= (- |i2'?3?3|) 0))
                      (and (<= (+ (- K6?6) 1) 0) (<= (+ (- n9?9) 1) 0)
                             (<= (+ |i2'?3?3| (- n9?9)) 0)
                             (<= (+ (- |i2'?3?3|) 1) 0)))
                (= (+ |i2'?3?3| (- K6?6)) 0) (<= (- K6?6) 0)
                (<= (- |i2'?3?3|) 0) (< (- n9?9) 0)
                (<= (+ (- |i2'?3?3|) n9?9) 0)
                (= (+ |i2'?7?7| (- |i2'?3?3|)) 0)
                (= (+ |i1'?1| (- i1?10) -1) 0)
                (= (+ delta_i1 (- (+ |i1'?1| (- i1?10)))) 0)
                (= (+ delta_i2 (- (+ |i2'?7?7| (- i2?8)))) 0))))